
Gurobi 6.5.2 (linux64) logging started Wed Sep 14 14:58:49 2016

Optimize a model with 41 rows, 115 columns and 239 nonzeros
Coefficient statistics:
  Matrix range    [1e+00, 2e+00]
  Objective range [5e+00, 1e+02]
  Bounds range    [1e+00, 1e+00]
  RHS range       [1e+00, 1e+00]
Found heuristic solution: objective 997
Presolve removed 20 rows and 16 columns
Presolve time: 0.00s
Presolved: 21 rows, 99 columns, 197 nonzeros
Variable types: 0 continuous, 99 integer (99 binary)

Root relaxation: objective 4.975000e+02, 27 iterations, 0.00 seconds

    Nodes    |    Current Node    |     Objective Bounds      |     Work
 Expl Unexpl |  Obj  Depth IntInf | Incumbent    BestBd   Gap | It/Node Time

     0     0  497.50000    0    8  997.00000  497.50000  50.1%     -    0s
H    0     0                     698.0000000  497.50000  28.7%     -    0s
     0     0  506.00000    0    4  698.00000  506.00000  27.5%     -    0s
     0     0  510.33333    0    8  698.00000  510.33333  26.9%     -    0s
     0     0  512.00000    0    8  698.00000  512.00000  26.6%     -    0s
     0     2  512.00000    0    8  698.00000  512.00000  26.6%     -    0s
*    8     7               3     542.0000000  518.00000  4.43%   4.6    0s
*   15     0               3     536.0000000  536.00000  0.00%   3.3    0s

Cutting planes:
  Gomory: 2
  Cover: 1
  MIR: 1
  Zero half: 1
  Lazy constraints: 13

Explored 17 nodes (97 simplex iterations) in 0.01 seconds
Thread count was 8 (of 8 available processors)

Optimal solution found (tolerance 1.00e-04)
Best objective 5.360000000000e+02, best bound 5.360000000000e+02, gap 0.0%
